(set-info :origin "NTS benchmark converted to SMT-LIB2 using Eldarica (http://lara.epfl.ch/w/eldarica)")
(set-logic HORN)
(declare-fun p (Int Int Int Int Int Int Int Int Int Int Int Int Int Int Int Int Int) Bool)
(assert(forall((A Int)(B Int)(C Int)(D Int)(E Int)(F Int)(G Int)(H Int)(I Int)(J Int)(K Int)(L Int)(M Int)(N Int)(O Int)(P Int)(Q Int)(R Int)(S Int)(T Int)(U Int)(V Int)(W Int)(X Int)(Y Int)(Z Int)(A1 Int)(B1 Int)(C1 Int)(D1 Int)(E1 Int)(F1 Int)(G1 Int))(=>(and (and (= A 22) (and (and (and (and (and (and (and (and (and (and (and (and (and (and (and (= R B) (= S C)) (= T D)) (= U E)) (= V F)) (= W G)) (= X H)) (= Y I)) (= Z J)) (= A1 K)) (= B1 L)) (= C1 M)) (= D1 N)) (= E1 O)) (= F1 P)) (= G1 Q))) (and (and (and (and (and (and (and (not (not (= X F1))) (not (not (= W E1)))) (not (not (= V D1)))) (not (not (= U C1)))) (not (not (= T B1)))) (not (not (= S A1)))) (not (not (= R Z)))) (not (not (= Y G1))))) (p A B C D E F G H I J K L M N O P Q))))
(assert(forall((A Int)(B Int)(C Int)(D Int)(E Int)(F Int)(G Int)(H Int)(I Int)(J Int)(K Int)(L Int)(M Int)(N Int)(O Int)(P Int)(Q Int)(R Int)(S Int)(T Int)(U Int)(V Int)(W Int)(X Int)(Y Int)(Z Int)(A1 Int)(B1 Int)(C1 Int)(D1 Int)(E1 Int)(F1 Int)(G1 Int)(H1 Int)(I1 Int)(J1 Int)(K1 Int)(L1 Int)(M1 Int)(N1 Int)(O1 Int)(P1 Int)(Q1 Int)(R1 Int)(S1 Int)(T1 Int)(U1 Int)(V1 Int)(W1 Int)(X1 Int)(Y1 Int)(Z1 Int)(A2 Int)(B2 Int)(C2 Int)(D2 Int)(E2 Int)(F2 Int))(=>(and (or (or (or (or (or (or (or (or (or (or (or (or (or (or (or (or (or (or (or (or (or (or (or (or (or (and (and (and (and (= A 0) (= R 1)) (and (and (and (and (and (and (and (and (and (and (and (and (and (and (and (= S B) (= T C)) (= U D)) (= V E)) (= W F)) (= X G)) (= Y H)) (= Z I)) (= A1 J)) (= B1 K)) (= C1 L)) (= D1 M)) (= E1 N)) (= F1 O)) (= G1 P)) (= H1 Q))) (and (and (and (and (and (and (and (and (and (and (and (and (and (and (and (= S I1) (= T J1)) (= U K1)) (= V L1)) (= W M1)) (= X N1)) (= Y O1)) (= Z P1)) (= Q1 R1)) (= S1 T1)) (= U1 V1)) (= W1 X1)) (= Y1 Z1)) (= A2 B2)) (= C2 D2)) (= E2 F2))) (and (and (and (and (and (not (not (= U1 C1))) (not (not (= W1 D1)))) (not (not (= A2 F1)))) (not (not (= C2 G1)))) (not (not (= Y1 E1)))) (not (not (= (+ H1 (- 1)) 0))))) (and (and (and (and (= A 2) (= R 3)) (and (and (and (and (and (and (and (and (and (and (and (and (and (and (and (= S B) (= T C)) (= U D)) (= V E)) (= W F)) (= X G)) (= Y H)) (= Z I)) (= A1 J)) (= B1 K)) (= C1 L)) (= D1 M)) (= E1 N)) (= F1 O)) (= G1 P)) (= H1 Q))) (and (and (and (and (and (and (and (and (and (and (and (and (and (and (and (= S I1) (= T J1)) (= U K1)) (= V L1)) (= W M1)) (= X N1)) (= Y O1)) (= Z P1)) (= Q1 R1)) (= S1 T1)) (= U1 V1)) (= A2 X1)) (= Y1 Z1)) (= C2 B2)) (= E2 D2)) (= W1 F2))) (and (and (and (and (and (not (not (= U1 C1))) (not (not (= W1 H1)))) (not (not (= A2 D1)))) (not (not (= C2 F1)))) (not (not (= Y1 E1)))) (not (not (= (+ G1 (- 1)) 0)))))) (and (and (and (and (= A 4) (= R 5)) (and (and (and (and (and (and (and (and (and (and (and (and (and (and (and (= S B) (= T C)) (= U D)) (= V E)) (= W F)) (= X G)) (= Y H)) (= Z I)) (= A1 J)) (= B1 K)) (= C1 L)) (= D1 M)) (= E1 N)) (= F1 O)) (= G1 P)) (= H1 Q))) (and (and (and (and (and (and (and (and (and (and (and (and (and (and (and (= S I1) (= T J1)) (= U K1)) (= V L1)) (= W M1)) (= X N1)) (= Y O1)) (= Z P1)) (= S1 R1)) (= E2 T1)) (= Y1 V1)) (= U1 X1)) (= C2 Z1)) (= W1 B2)) (= A2 D2)) (= Q1 F2))) (and (and (and (and (and (and (not (not (= Y1 C1))) (not (not (= Q1 H1)))) (not (not (= U1 D1)))) (not (not (= W1 F1)))) (not (not (= A2 G1)))) (not (not (= C2 E1)))) (not (not (>= (+ (+ Y1 0) (- 1)) 0)))))) (and (and (and (and (= A 4) (= R 6)) (and (and (and (and (and (and (and (and (and (and (and (and (and (and (and (= S B) (= T C)) (= U D)) (= V E)) (= W F)) (= X G)) (= Y H)) (= Z I)) (= A1 J)) (= B1 K)) (= C1 L)) (= D1 M)) (= E1 N)) (= F1 O)) (= G1 P)) (= H1 Q))) (and (and (and (and (and (and (and (and (and (and (and (and (and (and (and (= S I1) (= T J1)) (= U K1)) (= V L1)) (= W M1)) (= X N1)) (= Y O1)) (= Z P1)) (= S1 R1)) (= E2 T1)) (= Y1 V1)) (= U1 X1)) (= C2 Z1)) (= W1 B2)) (= A2 D2)) (= Q1 F2))) (and (and (and (and (and (and (not (not (= Y1 C1))) (not (not (= Q1 H1)))) (not (not (= U1 D1)))) (not (not (= W1 F1)))) (not (not (= A2 G1)))) (not (not (= C2 E1)))) (not (not (<= Y1 0)))))) (and (and (and (and (= A 7) (= R 8)) (and (and (and (and (and (and (and (and (and (and (and (and (and (and (and (= S B) (= T C)) (= U D)) (= V E)) (= W F)) (= X G)) (= Y H)) (= Z I)) (= A1 J)) (= B1 K)) (= C1 L)) (= D1 M)) (= E1 N)) (= F1 O)) (= G1 P)) (= H1 Q))) (and (and (and (and (and (and (and (and (and (and (and (and (and (and (and (= S I1) (= T J1)) (= U K1)) (= V L1)) (= W M1)) (= X N1)) (= Y O1)) (= Z P1)) (= S1 R1)) (= E2 T1)) (= Q1 V1)) (= W1 X1)) (= Y1 Z1)) (= A2 B2)) (= C2 D2)) (= U1 F2))) (and (and (and (and (and (and (not (not (= Q1 C1))) (not (not (= U1 H1)))) (not (not (= W1 D1)))) (not (not (= A2 F1)))) (not (not (= C2 G1)))) (not (not (= Y1 E1)))) (not (>= (+ (+ Y1 0) (- 1)) 0))))) (and (and (and (and (= A 9) (= R 8)) (and (and (and (and (and (and (and (and (and (and (and (and (and (and (and (= S B) (= T C)) (= U D)) (= V E)) (= W F)) (= X G)) (= Y H)) (= Z I)) (= A1 J)) (= B1 K)) (= C1 L)) (= D1 M)) (= E1 N)) (= F1 O)) (= G1 P)) (= H1 Q))) (and (and (and (and (and (and (and (and (and (and (and (and (and (and (and (= S I1) (= T J1)) (= U K1)) (= V L1)) (= W M1)) (= X N1)) (= Y O1)) (= Z P1)) (= S1 R1)) (= E2 T1)) (= Q1 V1)) (= W1 X1)) (= Y1 Z1)) (= A2 B2)) (= C2 D2)) (= U1 F2))) (and (and (and (and (and (and (not (not (= Q1 C1))) (not (not (= U1 H1)))) (not (not (= W1 D1)))) (not (not (= A2 F1)))) (not (not (= C2 G1)))) (not (not (= Y1 E1)))) (not (not (>= (+ (+ Y1 0) (- 1)) 0)))))) (and (and (and (and (= A 8) (= R 10)) (and (and (and (and (and (and (and (and (and (and (and (and (and (and (and (= S B) (= T C)) (= U D)) (= V E)) (= W F)) (= X G)) (= Y H)) (= Z I)) (= A1 J)) (= B1 K)) (= C1 L)) (= D1 M)) (= E1 N)) (= F1 O)) (= G1 P)) (= H1 Q))) (and (and (and (and (and (and (and (and (and (and (and (and (and (and (and (= S I1) (= T J1)) (= U K1)) (= V L1)) (= W M1)) (= X N1)) (= Y O1)) (= Z P1)) (= Q1 R1)) (= S1 T1)) (= U1 V1)) (= W1 X1)) (= Y1 Z1)) (= A2 B2)) (= C2 D2)) (= E2 F2))) (and (and (and (and (and (not (not (= U1 C1))) (not (not (= W1 D1)))) (not (not (= A2 F1)))) (not (not (= C2 G1)))) (not (not (= Y1 E1)))) (not (not (= (+ H1 0) 0)))))) (and (and (and (and (= A 12) (= R 0)) (and (and (and (and (and (and (and (and (and (and (and (and (and (and (and (= S B) (= T C)) (= U D)) (= V E)) (= W F)) (= X G)) (= Y H)) (= Z I)) (= A1 J)) (= B1 K)) (= C1 L)) (= D1 M)) (= E1 N)) (= F1 O)) (= G1 P)) (= H1 Q))) (and (and (and (and (and (and (and (and (and (and (and (and (and (and (and (= S I1) (= T J1)) (= U K1)) (= V L1)) (= W M1)) (= X N1)) (= Y O1)) (= Z P1)) (= S1 R1)) (= E2 T1)) (= Q1 V1)) (= U1 X1)) (= C2 Z1)) (= W1 B2)) (= A2 D2)) (= Y1 F2))) (and (and (and (and (and (and (not (not (= Q1 C1))) (not (not (= Y1 H1)))) (not (not (= U1 D1)))) (not (not (= W1 F1)))) (not (not (= A2 G1)))) (not (not (= C2 E1)))) (not (not (= (+ Y1 0) 0)))))) (and (and (and (and (= A 10) (= R 13)) (and (and (and (and (and (and (and (and (and (and (and (and (and (and (and (= S B) (= T C)) (= U D)) (= V E)) (= W F)) (= X G)) (= Y H)) (= Z I)) (= A1 J)) (= B1 K)) (= C1 L)) (= D1 M)) (= E1 N)) (= F1 O)) (= G1 P)) (= H1 Q))) (and (and (and (and (and (and (and (and (and (and (and (and (and (and (and (= S I1) (= T J1)) (= U K1)) (= V L1)) (= W M1)) (= X N1)) (= Y O1)) (= Z P1)) (= U1 R1)) (= Q1 T1)) (= C2 V1)) (= A2 X1)) (= Y1 Z1)) (= W1 B2)) (= S1 D2)) (= E2 F2))) (and (and (and (and (not (not (= W1 F1))) (not (not (= A2 D1)))) (not (not (= C2 C1)))) (not (not (= Y1 E1)))) (not (not (= (+ G1 0) 0)))))) (and (and (and (and (= A 2) (= R 14)) (and (and (and (and (and (and (and (and (and (and (and (and (and (and (and (= S B) (= T C)) (= U D)) (= V E)) (= W F)) (= X G)) (= Y H)) (= Z I)) (= A1 J)) (= B1 K)) (= C1 L)) (= D1 M)) (= E1 N)) (= F1 O)) (= G1 P)) (= H1 Q))) (and (and (and (and (and (and (and (and (and (and (and (and (and (and (and (= S I1) (= T J1)) (= U K1)) (= V L1)) (= W M1)) (= X N1)) (= Y O1)) (= Z P1)) (= Q1 R1)) (= S1 T1)) (= U1 V1)) (= A2 X1)) (= Y1 Z1)) (= C2 B2)) (= E2 D2)) (= W1 F2))) (and (and (and (and (and (not (not (= U1 C1))) (not (not (= W1 H1)))) (not (not (= A2 D1)))) (not (not (= C2 F1)))) (not (not (= Y1 E1)))) (not (not (= (+ G1 0) 0)))))) (and (and (and (and (= A 3) (= R 15)) (and (and (and (and (and (and (and (and (and (and (and (and (and (and (and (= S B) (= T C)) (= U D)) (= V E)) (= W F)) (= X G)) (= Y H)) (= Z I)) (= A1 J)) (= B1 K)) (= C1 L)) (= D1 M)) (= E1 N)) (= F1 O)) (= G1 P)) (= H1 Q))) (and (and (and (and (and (and (and (and (and (and (and (and (and (and (and (= S I1) (= T J1)) (= U K1)) (= V L1)) (= W M1)) (= X N1)) (= Y O1)) (= Z P1)) (= S1 R1)) (= E2 T1)) (= Y1 V1)) (= U1 X1)) (= C2 Z1)) (= W1 B2)) (= A2 D2)) (= Q1 F2))) (and (and (and (and (and (and (not (not (= Y1 C1))) (not (not (= Q1 H1)))) (not (not (= U1 D1)))) (not (not (= W1 F1)))) (not (not (= A2 G1)))) (not (not (= C2 E1)))) (not (>= (+ (+ Y1 0) (- 1)) 0))))) (and (and (and (and (= A 14) (= R 15)) (and (and (and (and (and (and (and (and (and (and (and (and (and (and (and (= S B) (= T C)) (= U D)) (= V E)) (= W F)) (= X G)) (= Y H)) (= Z I)) (= A1 J)) (= B1 K)) (= C1 L)) (= D1 M)) (= E1 N)) (= F1 O)) (= G1 P)) (= H1 Q))) (and (and (and (and (and (and (and (and (and (and (and (and (and (and (and (= S I1) (= T J1)) (= U K1)) (= V L1)) (= W M1)) (= X N1)) (= Y O1)) (= Z P1)) (= S1 R1)) (= E2 T1)) (= Y1 V1)) (= U1 X1)) (= C2 Z1)) (= W1 B2)) (= A2 D2)) (= Q1 F2))) (and (and (and (and (and (and (not (not (= Y1 C1))) (not (not (= Q1 H1)))) (not (not (= U1 D1)))) (not (not (= W1 F1)))) (not (not (= A2 G1)))) (not (not (= C2 E1)))) (not (not (>= (+ (+ Y1 0) (- 1)) 0)))))) (and (and (and (and (= A 0) (= R 2)) (and (and (and (and (and (and (and (and (and (and (and (and (and (and (and (= S B) (= T C)) (= U D)) (= V E)) (= W F)) (= X G)) (= Y H)) (= Z I)) (= A1 J)) (= B1 K)) (= C1 L)) (= D1 M)) (= E1 N)) (= F1 O)) (= G1 P)) (= H1 Q))) (and (and (and (and (and (and (and (and (and (and (and (and (and (and (and (= S I1) (= T J1)) (= U K1)) (= V L1)) (= W M1)) (= X N1)) (= Y O1)) (= Z P1)) (= S1 R1)) (= E2 T1)) (= Q1 V1)) (= W1 X1)) (= A2 Z1)) (= C2 B2)) (= Y1 D2)) (= U1 F2))) (and (and (and (and (and (and (not (not (= Q1 C1))) (not (not (= U1 H1)))) (not (not (= W1 D1)))) (not (not (= C2 F1)))) (not (not (= Y1 G1)))) (not (not (= A2 E1)))) (not (= Y1 C2))))) (and (and (and (and (= A 1) (= R 2)) (and (and (and (and (and (and (and (and (and (and (and (and (and (and (and (= S B) (= T C)) (= U D)) (= V E)) (= W F)) (= X G)) (= Y H)) (= Z I)) (= A1 J)) (= B1 K)) (= C1 L)) (= D1 M)) (= E1 N)) (= F1 O)) (= G1 P)) (= H1 Q))) (and (and (and (and (and (and (and (and (and (and (and (and (and (and (and (= S I1) (= T J1)) (= U K1)) (= V L1)) (= W M1)) (= X N1)) (= Y O1)) (= Z P1)) (= S1 R1)) (= E2 T1)) (= Q1 V1)) (= W1 X1)) (= A2 Z1)) (= C2 B2)) (= Y1 D2)) (= U1 F2))) (and (and (and (and (and (and (not (not (= Q1 C1))) (not (not (= U1 H1)))) (not (not (= W1 D1)))) (not (not (= C2 F1)))) (not (not (= Y1 G1)))) (not (not (= A2 E1)))) (not (not (= Y1 C2)))))) (and (and (and (and (= A 13) (= R 16)) (and (and (and (and (and (and (and (and (and (and (and (and (and (and (and (= S B) (= T C)) (= U D)) (= V E)) (= W F)) (= X G)) (= Y H)) (= Z I)) (= A1 J)) (= B1 K)) (= C1 L)) (= D1 M)) (= E1 N)) (= F1 O)) (= G1 P)) (= H1 Q))) (and (and (and (and (and (and (and (and (and (and (and (and (and (and (and (= S I1) (= T J1)) (= U K1)) (= V L1)) (= W M1)) (= X N1)) (= Y O1)) (= Z P1)) (= W1 R1)) (= U1 T1)) (= C2 V1)) (= A2 X1)) (= Y1 Z1)) (= Q1 B2)) (= S1 D2)) (= E2 F2))) (and (and (and (not (not (= A2 D1))) (not (not (= C2 C1)))) (not (not (= Y1 E1)))) (not (not (= (+ F1 0) 0)))))) (and (and (and (and (= A 6) (= R 17)) (and (and (and (and (and (and (and (and (and (and (and (and (and (and (and (= S B) (= T C)) (= U D)) (= V E)) (= W F)) (= X G)) (= Y H)) (= Z I)) (= A1 J)) (= B1 K)) (= C1 L)) (= D1 M)) (= E1 N)) (= F1 O)) (= G1 P)) (= H1 Q))) (and (and (and (and (and (and (and (and (and (and (and (and (and (and (and (= S I1) (= T J1)) (= U K1)) (= V L1)) (= W M1)) (= X N1)) (= Y O1)) (= Z P1)) (= S1 R1)) (= E2 T1)) (= Q1 V1)) (= Y1 X1)) (= C2 Z1)) (= W1 B2)) (= A2 D2)) (= U1 F2))) (and (and (and (and (and (and (not (not (= Q1 C1))) (not (not (= U1 H1)))) (not (not (= Y1 D1)))) (not (not (= W1 F1)))) (not (not (= A2 G1)))) (not (not (= C2 E1)))) (not (= (+ Y1 (- 1)) 0))))) (and (and (and (and (= A 5) (= R 17)) (and (and (and (and (and (and (and (and (and (and (and (and (and (and (and (= S B) (= T C)) (= U D)) (= V E)) (= W F)) (= X G)) (= Y H)) (= Z I)) (= A1 J)) (= B1 K)) (= C1 L)) (= D1 M)) (= E1 N)) (= F1 O)) (= G1 P)) (= H1 Q))) (and (and (and (and (and (and (and (and (and (and (and (and (and (and (and (= S I1) (= T J1)) (= U K1)) (= V L1)) (= W M1)) (= X N1)) (= Y O1)) (= Z P1)) (= S1 R1)) (= E2 T1)) (= Q1 V1)) (= Y1 X1)) (= C2 Z1)) (= W1 B2)) (= A2 D2)) (= U1 F2))) (and (and (and (and (and (and (not (not (= Q1 C1))) (not (not (= U1 H1)))) (not (not (= Y1 D1)))) (not (not (= W1 F1)))) (not (not (= A2 G1)))) (not (not (= C2 E1)))) (not (not (= (+ Y1 (- 1)) 0)))))) (and (and (and (and (= A 17) (= R 9)) (and (and (and (and (and (and (and (and (and (and (and (and (and (and (and (= S B) (= T C)) (= U D)) (= V E)) (= W F)) (= X G)) (= Y H)) (= Z I)) (= A1 J)) (= B1 K)) (= C1 L)) (= D1 M)) (= E1 N)) (= F1 O)) (= G1 P)) (= H1 Q))) (and (and (and (and (and (and (and (and (and (and (and (and (and (and (and (= S I1) (= T J1)) (= U K1)) (= V L1)) (= W M1)) (= X N1)) (= Y O1)) (= Z P1)) (= Q1 R1)) (= S1 T1)) (= U1 V1)) (= E2 X1)) (= Y1 Z1)) (= A2 B2)) (= C2 D2)) (= W1 F2))) (and (and (and (and (and (not (not (= U1 C1))) (not (not (= W1 H1)))) (not (not (= A2 F1)))) (not (not (= C2 G1)))) (not (not (= Y1 E1)))) (not (not (= (+ D1 0) 0)))))) (and (and (and (and (= A 18) (= R 19)) (and (and (and (and (and (and (and (and (and (and (and (and (and (and (and (= S B) (= T C)) (= U D)) (= V E)) (= W F)) (= X G)) (= Y H)) (= Z I)) (= A1 J)) (= B1 K)) (= C1 L)) (= D1 M)) (= E1 N)) (= F1 O)) (= G1 P)) (= H1 Q))) (and (and (and (and (and (and (and (and (and (and (and (and (and (and (and (= S I1) (= T J1)) (= U K1)) (= V L1)) (= W M1)) (= X N1)) (= Y O1)) (= Z P1)) (= Y1 R1)) (= A2 T1)) (= W1 V1)) (= U1 X1)) (= C2 Z1)) (= Q1 B2)) (= S1 D2)) (= E2 F2))) (and (not (not (= C2 E1))) (not (not (= C1 Y1)))))) (and (and (and (and (= A 15) (= R 20)) (and (and (and (and (and (and (and (and (and (and (and (and (and (and (and (= S B) (= T C)) (= U D)) (= V E)) (= W F)) (= X G)) (= Y H)) (= Z I)) (= A1 J)) (= B1 K)) (= C1 L)) (= D1 M)) (= E1 N)) (= F1 O)) (= G1 P)) (= H1 Q))) (and (and (and (and (and (and (and (and (and (and (and (and (and (and (and (= S I1) (= T J1)) (= U K1)) (= V L1)) (= W M1)) (= X N1)) (= Y O1)) (= Z P1)) (= Q1 R1)) (= S1 T1)) (= U1 V1)) (= A2 X1)) (= Y1 Z1)) (= E2 B2)) (= C2 D2)) (= W1 F2))) (and (and (and (and (and (not (not (= U1 C1))) (not (not (= W1 H1)))) (not (not (= A2 D1)))) (not (not (= C2 G1)))) (not (not (= Y1 E1)))) (not (not (= (+ F1 0) 0)))))) (and (and (and (and (= A 21) (= R 4)) (and (and (and (and (and (and (and (and (and (and (and (and (and (and (and (= S B) (= T C)) (= U D)) (= V E)) (= W F)) (= X G)) (= Y H)) (= Z I)) (= A1 J)) (= B1 K)) (= C1 L)) (= D1 M)) (= E1 N)) (= F1 O)) (= G1 P)) (= H1 Q))) (and (and (and (and (and (and (and (and (and (and (and (and (and (and (and (= S I1) (= T J1)) (= U K1)) (= V L1)) (= W M1)) (= X N1)) (= Y O1)) (= Z P1)) (= S1 R1)) (= E2 T1)) (= Q1 V1)) (= W1 X1)) (= Y1 Z1)) (= A2 B2)) (= C2 D2)) (= U1 F2))) (and (and (and (and (and (and (not (not (= Q1 C1))) (not (not (= U1 H1)))) (not (not (= W1 D1)))) (not (not (= A2 F1)))) (not (not (= C2 G1)))) (not (not (= Y1 E1)))) (not (>= (+ (+ Y1 0) (- 1)) 0))))) (and (and (and (and (= A 20) (= R 4)) (and (and (and (and (and (and (and (and (and (and (and (and (and (and (and (= S B) (= T C)) (= U D)) (= V E)) (= W F)) (= X G)) (= Y H)) (= Z I)) (= A1 J)) (= B1 K)) (= C1 L)) (= D1 M)) (= E1 N)) (= F1 O)) (= G1 P)) (= H1 Q))) (and (and (and (and (and (and (and (and (and (and (and (and (and (and (and (= S I1) (= T J1)) (= U K1)) (= V L1)) (= W M1)) (= X N1)) (= Y O1)) (= Z P1)) (= S1 R1)) (= E2 T1)) (= Q1 V1)) (= W1 X1)) (= Y1 Z1)) (= A2 B2)) (= C2 D2)) (= U1 F2))) (and (and (and (and (and (and (not (not (= Q1 C1))) (not (not (= U1 H1)))) (not (not (= W1 D1)))) (not (not (= A2 F1)))) (not (not (= C2 G1)))) (not (not (= Y1 E1)))) (not (not (>= (+ (+ Y1 0) (- 1)) 0)))))) (and (and (and (and (= A 19) (= R 22)) (and (and (and (and (and (and (and (and (and (and (and (and (and (and (and (= S B) (= T C)) (= U D)) (= V E)) (= W F)) (= X G)) (= Y H)) (= Z I)) (= A1 J)) (= B1 K)) (= C1 L)) (= D1 M)) (= E1 N)) (= F1 O)) (= G1 P)) (= H1 Q))) (and (and (and (and (and (and (and (and (and (and (and (and (and (and (and (= S I1) (= T J1)) (= U K1)) (= V L1)) (= W M1)) (= X N1)) (= Y O1)) (= Z P1)) (= C2 R1)) (= Y1 T1)) (= A2 V1)) (= W1 X1)) (= U1 Z1)) (= Q1 B2)) (= S1 D2)) (= E2 F2))) (not (not (= E1 Y1))))) (and (and (and (and (= A 17) (= R 7)) (and (and (and (and (and (and (and (and (and (and (and (and (and (and (and (= S B) (= T C)) (= U D)) (= V E)) (= W F)) (= X G)) (= Y H)) (= Z I)) (= A1 J)) (= B1 K)) (= C1 L)) (= D1 M)) (= E1 N)) (= F1 O)) (= G1 P)) (= H1 Q))) (and (and (and (and (and (and (and (and (and (and (and (and (and (and (and (= S I1) (= T J1)) (= U K1)) (= V L1)) (= W M1)) (= X N1)) (= Y O1)) (= Z P1)) (= Q1 R1)) (= S1 T1)) (= U1 V1)) (= E2 X1)) (= Y1 Z1)) (= A2 B2)) (= C2 D2)) (= W1 F2))) (and (and (and (and (and (not (not (= U1 C1))) (not (not (= W1 H1)))) (not (not (= A2 F1)))) (not (not (= C2 G1)))) (not (not (= Y1 E1)))) (not (not (= (+ D1 (- 1)) 0)))))) (and (and (and (and (= A 16) (= R 18)) (and (and (and (and (and (and (and (and (and (and (and (and (and (and (and (= S B) (= T C)) (= U D)) (= V E)) (= W F)) (= X G)) (= Y H)) (= Z I)) (= A1 J)) (= B1 K)) (= C1 L)) (= D1 M)) (= E1 N)) (= F1 O)) (= G1 P)) (= H1 Q))) (and (and (and (and (and (and (and (and (and (and (and (and (and (and (and (= S I1) (= T J1)) (= U K1)) (= V L1)) (= W M1)) (= X N1)) (= Y O1)) (= Z P1)) (= A2 R1)) (= W1 T1)) (= C2 V1)) (= U1 X1)) (= Y1 Z1)) (= Q1 B2)) (= S1 D2)) (= E2 F2))) (and (and (not (not (= C2 C1))) (not (not (= Y1 E1)))) (not (not (= (+ D1 0) 0)))))) (and (and (and (and (= A 15) (= R 21)) (and (and (and (and (and (and (and (and (and (and (and (and (and (and (and (= S B) (= T C)) (= U D)) (= V E)) (= W F)) (= X G)) (= Y H)) (= Z I)) (= A1 J)) (= B1 K)) (= C1 L)) (= D1 M)) (= E1 N)) (= F1 O)) (= G1 P)) (= H1 Q))) (and (and (and (and (and (and (and (and (and (and (and (and (and (and (and (= S I1) (= T J1)) (= U K1)) (= V L1)) (= W M1)) (= X N1)) (= Y O1)) (= Z P1)) (= Q1 R1)) (= S1 T1)) (= U1 V1)) (= A2 X1)) (= Y1 Z1)) (= E2 B2)) (= C2 D2)) (= W1 F2))) (and (and (and (and (and (not (not (= U1 C1))) (not (not (= W1 H1)))) (not (not (= A2 D1)))) (not (not (= C2 G1)))) (not (not (= Y1 E1)))) (not (not (= (+ F1 (- 1)) 0)))))) (p R I1 J1 K1 L1 M1 N1 O1 P1 R1 T1 V1 X1 Z1 B2 D2 F2)) (p A B C D E F G H I J K L M N O P Q))))
(assert(not (exists((A Int)(B Int)(C Int)(D Int)(E Int)(F Int)(G Int)(H Int)(I Int)(J Int)(K Int)(L Int)(M Int)(N Int)(O Int)(P Int)(Q Int)(R Int)(S Int)(T Int)(U Int)(V Int)(W Int)(X Int)(Y Int)(Z Int)(A1 Int)(B1 Int)(C1 Int)(D1 Int)(E1 Int)(F1 Int)(G1 Int)(H1 Int)(I1 Int)(J1 Int)(K1 Int)(L1 Int)(M1 Int))(and (and (and (= A 0) (and (and (and (and (and (and (and (and (and (and (and (and (and (and (and (= B C) (= D E)) (= F G)) (= H I)) (= J K)) (= L M)) (= N O)) (= P Q)) (= R S)) (= T U)) (= V W)) (= X Y)) (= Z A1)) (= B1 C1)) (= D1 E1)) (= F1 G1))) (and (and (and (and (and (and (not (not (= V H1))) (not (not (= F1 I1)))) (not (not (= X J1)))) (not (not (= B1 K1)))) (not (not (= D1 L1)))) (not (not (= Z M1)))) (not (= (+ F1 0) 0)))) (p A C E G I K M O Q S U W Y A1 C1 E1 G1)))))
(check-sat)
